WARNING: for repeatability, setting FPU to use double precision
============================[ Problem Statistics ]=============================
|                                                                             |
|  Number of variables:           100                                         |
|  Number of clauses:             449                                         |
|  Parse time:                   0.00 s                                       |
|  Eliminated clauses:           0.00 Mb                                      |
|  Simplification time:          0.00 s                                       |
|                                                                             |
============================[ Search Statistics ]==============================
| Conflicts |          ORIGINAL         |          LEARNT          | Progress |
|           |    Vars  Clauses Literals |    Limit  Clauses Lit/Cl |          |
===============================================================================
|       100 |      98      445     1348 |      163      100      7 |  0.011 % |
|       250 |      98      445     1348 |      179      166      6 |  0.011 % |
===============================================================================
restarts              : 3
conflicts             : 357            (123103 /sec)
decisions             : 439            (0.00 % random) (151379 /sec)
propagations          : 8409           (2899655 /sec)
conflict literals     : 2113           (24.64 % deleted)
Memory used           : 13.00 MB
CPU time              : 0.0029 s

SATISFIABLE
